A-n32-k5

HEAVY VEHICLE 
NUMBER     CAPACITY 
  5         100 

CUSTOMER
CUST NO.  XCOORD.   YCOORD.    DEMAND   READY TIME  DUE DATE   SERVICE   TIME

    0      82         76          0          0       1200          0
    1      96         44         19          0       1100         90
    2      50         5          21          0       1100         90
    3      49         8          6           0       1100         90
    4      13         7          19          0       1100         90
    5      29         89         7           0       1100         90
    6      58         30         12          0       1100         90
    7      84         39         16          0       1100         90
    8      14         24         6           0       1100         90
    9      2          39         16          0       1100         90
   10      3          82         8           0       1100         90
   11      5          10         14          0       1100         90
   12      98         52         21          0       1100         90
   13      84         25         16          0       1100         90
   14      61         59         3           0       1100         90
   15      1          65         22          0       1100         90
   16      88         51         18          0       1100         90
   17      91         2          19          0       1100         90
   18      19         32         1           0       1100         90
   19      93         3          24          0       1100         90
   20      50         93         8           0       1100         90
   21      98         14         12          0       1100         90
   22      5          42         4           0       1100         90
   23      42         9          8           0       1100         90
   24      61         62         24          0       1100         90
   25      9          97         24          0       1100         90
   26      80         55         2           0       1100         90
   27      57         69         20          0       1100         90
   28      23         15         15          0       1100         90
   29      20         70         2           0       1100         90
   30      85         60         14          0       1100         90
   31      98         5          9           0       1100         90
